0
42
0
10
12
24
7
0
0
16
9
0
15
23
29
0
81
10
14
0
25
0
12
20
0
7
11
44
0
12
20
0
0
0
10
0
0
120
10
11
13
0
16
0
9
0
0
12
7
10
0
0
8
31
14
10
17
14
7
17
12
0
13
0
0
9
0
11
43
7
0
0
20
0
18
22
19
0
9
16
8
9
0
0
41
7
17
42
8
38
0
11
0
8
0
0
0
11
19
0
